Version identifier: 12.10.0.0 | 2019-11-26 | 843d4de
CPXPARAM_WorkMem                                 28672
Tried aggregator 2 times.
MIP Presolve eliminated 14 rows and 0 columns.
MIP Presolve added 28 rows and 0 columns.
Aggregator did 40 substitutions.
Reduced MIP has 76 rows, 70 columns, and 314 nonzeros.
Reduced MIP has 70 binaries, 0 generals, 0 SOSs, and 0 indicators.
Presolve time = 0,00 sec. (0,64 ticks)
Found incumbent of value 329,000000 after 0,00 sec. (0,74 ticks)
Probing time = 0,00 sec. (0,33 ticks)
Tried aggregator 1 time.
Detecting symmetries...
Reduced MIP has 76 rows, 70 columns, and 314 nonzeros.
Reduced MIP has 70 binaries, 0 generals, 0 SOSs, and 0 indicators.
Presolve time = 0,00 sec. (0,26 ticks)
Probing time = 0,00 sec. (0,32 ticks)
Clique table members: 277.
MIP emphasis: balance optimality and feasibility.
MIP search method: dynamic search.
Parallel mode: deterministic, using up to 16 threads.
Root relaxation solution time = 0,00 sec. (0,17 ticks)

        Nodes                                         Cuts/
   Node  Left     Objective  IInf  Best Integer    Best Bound    ItCnt     Gap

*     0+    0                          329,0000        0,0000           100,00%
*     0+    0                          310,0000        0,0000           100,00%
*     0+    0                          306,0000        0,0000           100,00%
      0     0      176,0000    68      306,0000      176,0000       30   42,48%
*     0+    0                          305,0000      176,0000            42,30%
      0     0      208,5046    68      305,0000     Cuts: 119       73   31,64%
*     0+    0                          295,0000      208,5046            29,32%
      0     0      212,2960    68      295,0000      Cuts: 22       98   28,04%
      0     0      214,9183    68      295,0000      Cuts: 27      106   27,15%
      0     0      215,4136    68      295,0000   ZeroHalf: 5      116   26,98%
      0     0      215,7869    68      295,0000      Cuts: 39      134   26,85%
Detecting symmetries...
      0     0      215,9953    68      295,0000      Cuts: 48      143   26,78%
      0     0      216,4175    68      295,0000  ZeroHalf: 11      149   26,64%
      0     0      216,5438    68      295,0000   ZeroHalf: 4      152   26,60%
*     0+    0                          289,0000      216,5438            25,07%
      0     0      216,5875    68      289,0000   ZeroHalf: 2      155   25,06%
      0     0      216,6933    68      289,0000   ZeroHalf: 4      159   25,02%
      0     0      216,8171    68      289,0000   ZeroHalf: 2      165   24,98%
      0     0      216,8850    68      289,0000      Cuts: 40      172   24,95%
      0     0      216,9556    68      289,0000   ZeroHalf: 4      179   24,93%
      0     0      216,9756    68      289,0000   ZeroHalf: 3      182   24,92%
      0     0      216,9999    68      289,0000   ZeroHalf: 2      186   24,91%
      0     0        cutoff            289,0000      289,0000      186    0,00%
Elapsed time = 0,05 sec. (22,38 ticks, tree = 0,01 MB, solutions = 6)

Clique cuts applied:  2
Cover cuts applied:  1
Flow cuts applied:  2
Mixed integer rounding cuts applied:  8
Zero-half cuts applied:  10
Gomory fractional cuts applied:  1

Root node processing (before b&c):
  Real time             =    0,05 sec. (22,39 ticks)
Parallel b&c, 16 threads:
  Real time             =    0,00 sec. (0,00 ticks)
  Sync time (average)   =    0,00 sec.
  Wait time (average)   =    0,00 sec.
                          ------------
Total (root+branch&cut) =    0,05 sec. (22,39 ticks)
